(set-logic ALL)
(declare-const name String)
(declare-const force Bool)
(assert (not (str.contains name "#")))
(assert (not (< (str.len name) 0)))
(assert (> (+ 0 (str.indexof name ":" 0)) 0))
(assert (not (< (+ 0 (str.indexof name ":" 0)) 0)))
(assert (= (str.substr name 0 (- (+ 0 (str.indexof name ":" 0)) 0)) "http"))
(assert (not (< (+ (+ 0 (str.indexof name ":" 0)) 1) 0)))
(assert (not (< (str.len name) 0)))
(assert (= (str.substr name (+ (+ 0 (str.indexof name ":" 0)) 1) (- (str.len name) (+ (+ 0 (str.indexof name ":" 0)) 1))) "//"))
(assert (not (< (str.len (str.substr name (+ (+ 0 (str.indexof name ":" 0)) 1) (- (str.len name) (+ (+ 0 (str.indexof name ":" 0)) 1)))) 0)))
(assert (not (>= (+ 2 (str.indexof (str.substr (str.substr name (+ (+ 0 (str.indexof name ":" 0)) 1) (- (str.len name) (+ (+ 0 (str.indexof name ":" 0)) 1))) 2 (- (str.len (str.substr name (+ (+ 0 (str.indexof name ":" 0)) 1) (- (str.len name) (+ (+ 0 (str.indexof name ":" 0)) 1)))) 2)) "/" 0)) 0)))
(assert (not (< (str.len (str.substr name (+ (+ 0 (str.indexof name ":" 0)) 1) (- (str.len name) (+ (+ 0 (str.indexof name ":" 0)) 1)))) 0)))
(assert (not (>= (+ 2 (str.indexof (str.substr (str.substr name (+ (+ 0 (str.indexof name ":" 0)) 1) (- (str.len name) (+ (+ 0 (str.indexof name ":" 0)) 1))) 2 (- (str.len (str.substr name (+ (+ 0 (str.indexof name ":" 0)) 1) (- (str.len name) (+ (+ 0 (str.indexof name ":" 0)) 1)))) 2)) "?" 0)) 0)))
(assert (not (< (str.len (str.substr name (+ (+ 0 (str.indexof name ":" 0)) 1) (- (str.len name) (+ (+ 0 (str.indexof name ":" 0)) 1)))) 0)))
(assert (not (>= (+ 2 (str.indexof (str.substr (str.substr name (+ (+ 0 (str.indexof name ":" 0)) 1) (- (str.len name) (+ (+ 0 (str.indexof name ":" 0)) 1))) 2 (- (str.len (str.substr name (+ (+ 0 (str.indexof name ":" 0)) 1) (- (str.len name) (+ (+ 0 (str.indexof name ":" 0)) 1)))) 2)) "#" 0)) 0)))
(assert (not (< (str.len (str.substr name (+ (+ 0 (str.indexof name ":" 0)) 1) (- (str.len name) (+ (+ 0 (str.indexof name ":" 0)) 1)))) 0)))
(assert (not (< (str.len (str.substr name (+ (+ 0 (str.indexof name ":" 0)) 1) (- (str.len name) (+ (+ 0 (str.indexof name ":" 0)) 1)))) 0)))
(assert (not (< (str.len (str.substr name (+ (+ 0 (str.indexof name ":" 0)) 1) (- (str.len name) (+ (+ 0 (str.indexof name ":" 0)) 1)))) 0)))
(assert (not (str.contains (str.substr (str.substr name (+ (+ 0 (str.indexof name ":" 0)) 1) (- (str.len name) (+ (+ 0 (str.indexof name ":" 0)) 1))) 2 (- (str.len (str.substr name (+ (+ 0 (str.indexof name ":" 0)) 1) (- (str.len name) (+ (+ 0 (str.indexof name ":" 0)) 1)))) 2)) "[")))
(assert (not (str.contains (str.substr (str.substr name (+ (+ 0 (str.indexof name ":" 0)) 1) (- (str.len name) (+ (+ 0 (str.indexof name ":" 0)) 1))) 2 (- (str.len (str.substr name (+ (+ 0 (str.indexof name ":" 0)) 1) (- (str.len name) (+ (+ 0 (str.indexof name ":" 0)) 1)))) 2)) "]")))
(assert (not (str.contains (str.substr (str.substr name (+ (+ 0 (str.indexof name ":" 0)) 1) (- (str.len name) (+ (+ 0 (str.indexof name ":" 0)) 1))) (str.len (str.substr name (+ (+ 0 (str.indexof name ":" 0)) 1) (- (str.len name) (+ (+ 0 (str.indexof name ":" 0)) 1)))) (- (str.len (str.substr name (+ (+ 0 (str.indexof name ":" 0)) 1) (- (str.len name) (+ (+ 0 (str.indexof name ":" 0)) 1)))) (str.len (str.substr name (+ (+ 0 (str.indexof name ":" 0)) 1) (- (str.len name) (+ (+ 0 (str.indexof name ":" 0)) 1)))))) "#")))
(assert (not (str.contains (str.substr (str.substr name (+ (+ 0 (str.indexof name ":" 0)) 1) (- (str.len name) (+ (+ 0 (str.indexof name ":" 0)) 1))) (str.len (str.substr name (+ (+ 0 (str.indexof name ":" 0)) 1) (- (str.len name) (+ (+ 0 (str.indexof name ":" 0)) 1)))) (- (str.len (str.substr name (+ (+ 0 (str.indexof name ":" 0)) 1) (- (str.len name) (+ (+ 0 (str.indexof name ":" 0)) 1)))) (str.len (str.substr name (+ (+ 0 (str.indexof name ":" 0)) 1) (- (str.len name) (+ (+ 0 (str.indexof name ":" 0)) 1)))))) "?")))
(assert (not (not (= (str.substr (str.substr name (+ (+ 0 (str.indexof name ":" 0)) 1) (- (str.len name) (+ (+ 0 (str.indexof name ":" 0)) 1))) 2 (- (str.len (str.substr name (+ (+ 0 (str.indexof name ":" 0)) 1) (- (str.len name) (+ (+ 0 (str.indexof name ":" 0)) 1)))) 2)) ""))))
(assert (not (< (str.len (str.substr (str.substr name (+ (+ 0 (str.indexof name ":" 0)) 1) (- (str.len name) (+ (+ 0 (str.indexof name ":" 0)) 1))) (str.len (str.substr name (+ (+ 0 (str.indexof name ":" 0)) 1) (- (str.len name) (+ (+ 0 (str.indexof name ":" 0)) 1)))) (- (str.len (str.substr name (+ (+ 0 (str.indexof name ":" 0)) 1) (- (str.len name) (+ (+ 0 (str.indexof name ":" 0)) 1)))) (str.len (str.substr name (+ (+ 0 (str.indexof name ":" 0)) 1) (- (str.len name) (+ (+ 0 (str.indexof name ":" 0)) 1))))))) 0)))
(assert (not (str.suffixof "/" (str.substr (str.substr name (+ (+ 0 (str.indexof name ":" 0)) 1) (- (str.len name) (+ (+ 0 (str.indexof name ":" 0)) 1))) (str.len (str.substr name (+ (+ 0 (str.indexof name ":" 0)) 1) (- (str.len name) (+ (+ 0 (str.indexof name ":" 0)) 1)))) (- (str.len (str.substr name (+ (+ 0 (str.indexof name ":" 0)) 1) (- (str.len name) (+ (+ 0 (str.indexof name ":" 0)) 1)))) (str.len (str.substr name (+ (+ 0 (str.indexof name ":" 0)) 1) (- (str.len name) (+ (+ 0 (str.indexof name ":" 0)) 1)))))))))
(assert (< (str.len name) 0))
(check-sat)
(get-value (name))
(get-value (force))
